Academic license - for non-commercial use only
Set parameter TimeLimit to value 7200

Gurobi Optimizer version 7.5.2 build v7.5.2rc1 (linux64)
Copyright (c) 2017, Gurobi Optimization, Inc.

Read LP format model from file compact/la02.lp
Reading time = 0.00 seconds
: 950 rows, 551 columns, 2800 nonzeros
Optimize a model with 950 rows, 551 columns and 2800 nonzeros
Variable types: 0 continuous, 551 integer (500 binary)
Coefficient statistics:
  Matrix range     [1e+00, 3e+03]
  Objective range  [1e+00, 1e+00]
  Bounds range     [1e+00, 1e+00]
  RHS range        [1e+01, 3e+03]
Presolve removed 0 rows and 50 columns
Presolve time: 0.01s
Presolved: 950 rows, 501 columns, 2800 nonzeros
Variable types: 0 continuous, 501 integer (450 binary)

Root relaxation: objective 4.040000e+02, 299 iterations, 0.00 seconds

    Nodes    |    Current Node    |     Objective Bounds      |     Work
 Expl Unexpl |  Obj  Depth IntInf | Incumbent    BestBd   Gap | It/Node Time

     0     0  404.00000    0   72          -  404.00000      -     -    0s
     0     0  404.00000    0  106          -  404.00000      -     -    0s
     0     0  404.00000    0  104          -  404.00000      -     -    0s
     0     0  411.53942    0  138          -  411.53942      -     -    0s
     0     0  411.53942    0   64          -  411.53942      -     -    0s
     0     0  413.06274    0  105          -  413.06274      -     -    0s
     0     0  413.06274    0  109          -  413.06274      -     -    0s
     0     0  427.31793    0  105          -  427.31793      -     -    0s
     0     0  427.91341    0  107          -  427.91341      -     -    0s
     0     0  427.91341    0  107          -  427.91341      -     -    0s
     0     0  431.29067    0  117          -  431.29067      -     -    0s
     0     0  431.33196    0  116          -  431.33196      -     -    0s
     0     0  431.33196    0  117          -  431.33196      -     -    0s
     0     0  433.91284    0  115          -  433.91284      -     -    0s
     0     0  435.63623    0  116          -  435.63623      -     -    0s
     0     0  435.63623    0  114          -  435.63623      -     -    0s
     0     0  435.99763    0  120          -  435.99763      -     -    0s
     0     0  436.04855    0  123          -  436.04855      -     -    0s
     0     0  437.47962    0  109          -  437.47962      -     -    0s
     0     0  437.53036    0  111          -  437.53036      -     -    0s
     0     0  437.53036    0  111          -  437.53036      -     -    0s
     0     0  437.85763    0   91          -  437.85763      -     -    0s
     0     0  437.85763    0   36          -  437.85763      -     -    0s
     0     0  437.85763    0   91          -  437.85763      -     -    0s
     0     0  437.85763    0   79          -  437.85763      -     -    0s
     0     0  437.85763    0   97          -  437.85763      -     -    0s
     0     0  437.85763    0  101          -  437.85763      -     -    0s
     0     0  438.00000    0   78          -  438.00000      -     -    0s
     0     0  438.00000    0   91          -  438.00000      -     -    0s
     0     0  438.41980    0   96          -  438.41980      -     -    0s
     0     0  440.18362    0   99          -  440.18362      -     -    0s
     0     0  440.18362    0   96          -  440.18362      -     -    0s
     0     0  440.33907    0  102          -  440.33907      -     -    0s
     0     0  440.45647    0  104          -  440.45647      -     -    0s
     0     0  440.45647    0  108          -  440.45647      -     -    0s
     0     0  440.54308    0  119          -  440.54308      -     -    0s
     0     0  440.54308    0  114          -  440.54308      -     -    0s
     0     0  440.54308    0  120          -  440.54308      -     -    0s
     0     0  440.54308    0  123          -  440.54308      -     -    0s
     0     0  441.15723    0   99          -  441.15723      -     -    0s
     0     0  441.25844    0   93          -  441.25844      -     -    0s
     0     0  441.29687    0   92          -  441.29687      -     -    0s
     0     0  441.29687    0  105          -  441.29687      -     -    0s
     0     0  441.32291    0  106          -  441.32291      -     -    0s
     0     0  441.32291    0  105          -  441.32291      -     -    0s
     0     0  441.32291    0  109          -  441.32291      -     -    0s
     0     0  441.32291    0  111          -  441.32291      -     -    0s
     0     0  441.32291    0   90          -  441.32291      -     -    0s
     0     0  441.32291    0   96          -  441.32291      -     -    0s
     0     0  441.32291    0   85          -  441.32291      -     -    0s
     0     0  442.00000    0   76          -  442.00000      -     -    0s
     0     0  442.00000    0   73          -  442.00000      -     -    0s
H    0     0                     809.0000000  442.00000  45.4%     -    0s
H    0     0                     780.0000000  442.00000  43.3%     -    0s
H    0     0                     702.0000000  442.00000  37.0%     -    0s
     0     0  442.00000    0   36  702.00000  442.00000  37.0%     -    0s
     0     0  442.00000    0   57  702.00000  442.00000  37.0%     -    0s
     0     0  442.00000    0   87  702.00000  442.00000  37.0%     -    0s
     0     0  442.00000    0   49  702.00000  442.00000  37.0%     -    0s
     0     0  442.00000    0   47  702.00000  442.00000  37.0%     -    0s
     0     0  442.04711    0   88  702.00000  442.04711  37.0%     -    0s
     0     0  442.45772    0   86  702.00000  442.45772  37.0%     -    0s
     0     0  442.83736    0   89  702.00000  442.83736  36.9%     -    0s
     0     0  442.93427    0   88  702.00000  442.93427  36.9%     -    0s
     0     0  442.97012    0   90  702.00000  442.97012  36.9%     -    0s
     0     0  442.99352    0   91  702.00000  442.99352  36.9%     -    0s
     0     0  443.07961    0   90  702.00000  443.07961  36.9%     -    0s
     0     0  443.07961    0   90  702.00000  443.07961  36.9%     -    0s
     0     0  444.98224    0   97  702.00000  444.98224  36.6%     -    0s
     0     0  445.15044    0   94  702.00000  445.15044  36.6%     -    0s
     0     0  445.15044    0   96  702.00000  445.15044  36.6%     -    0s
     0     0  446.11322    0   90  702.00000  446.11322  36.5%     -    0s
     0     0  446.23485    0   92  702.00000  446.23485  36.4%     -    0s
     0     0  446.23485    0   94  702.00000  446.23485  36.4%     -    0s
     0     0  446.23485    0  100  702.00000  446.23485  36.4%     -    1s
     0     0  446.24288    0  101  702.00000  446.24288  36.4%     -    1s
     0     0  446.24288    0  100  702.00000  446.24288  36.4%     -    1s
     0     0  446.57116    0  102  702.00000  446.57116  36.4%     -    1s
     0     0  446.58681    0  100  702.00000  446.58681  36.4%     -    1s
     0     0  446.58681    0  100  702.00000  446.58681  36.4%     -    1s
     0     0  446.73375    0  110  702.00000  446.73375  36.4%     -    1s
     0     0  447.09715    0   93  702.00000  447.09715  36.3%     -    1s
     0     0  447.19321    0  103  702.00000  447.19321  36.3%     -    1s
     0     0  447.19321    0  105  702.00000  447.19321  36.3%     -    1s
     0     0  447.22863    0   99  702.00000  447.22863  36.3%     -    1s
     0     0  447.31917    0   96  702.00000  447.31917  36.3%     -    1s
     0     0  447.31917    0   98  702.00000  447.31917  36.3%     -    1s
     0     0  447.33625    0  101  702.00000  447.33625  36.3%     -    1s
     0     0  447.34300    0  105  702.00000  447.34300  36.3%     -    1s
     0     0  447.34300    0  106  702.00000  447.34300  36.3%     -    1s
     0     0  447.48746    0  104  702.00000  447.48746  36.3%     -    1s
     0     0  447.52049    0   98  702.00000  447.52049  36.3%     -    1s
     0     0  447.56458    0   94  702.00000  447.56458  36.2%     -    1s
     0     0  447.56458    0   82  702.00000  447.56458  36.2%     -    1s
     0     0  447.60103    0   93  702.00000  447.60103  36.2%     -    1s
H    0     0                     701.0000000  447.60103  36.1%     -    1s
H    0     0                     700.0000000  447.60103  36.1%     -    1s
     0     0  447.63921    0   96  700.00000  447.63921  36.1%     -    1s
     0     0  447.63921    0   96  700.00000  447.63921  36.1%     -    1s
     0     0  447.66305    0   97  700.00000  447.66305  36.0%     -    1s
H    0     0                     699.0000000  447.66305  36.0%     -    1s
     0     0  447.66305    0   93  699.00000  447.66305  36.0%     -    1s
     0     0  447.68494    0  103  699.00000  447.68494  36.0%     -    1s
     0     0  447.70010    0  103  699.00000  447.70010  36.0%     -    1s
     0     0  447.70010    0  103  699.00000  447.70010  36.0%     -    1s
     0     0  447.73462    0  102  699.00000  447.73462  35.9%     -    1s
H    0     0                     691.0000000  447.73462  35.2%     -    1s
     0     0  447.73462    0  106  691.00000  447.73462  35.2%     -    1s
     0     0  447.73462    0  108  691.00000  447.73462  35.2%     -    1s
     0     0  447.73462    0  109  691.00000  447.73462  35.2%     -    1s
     0     0  447.73548    0   83  691.00000  447.73548  35.2%     -    1s
     0     0  447.73548    0   91  691.00000  447.73548  35.2%     -    1s
     0     0  447.79244    0   97  691.00000  447.79244  35.2%     -    1s
H    0     0                     685.0000000  447.79244  34.6%     -    1s
     0     0  447.79244    0  100  685.00000  447.79244  34.6%     -    1s
     0     0  447.79244    0  106  685.00000  447.79244  34.6%     -    1s
     0     0  448.00000    0   78  685.00000  448.00000  34.6%     -    1s
     0     0  448.00000    0   69  685.00000  448.00000  34.6%     -    1s
H    0     0                     671.0000000  448.00000  33.2%     -    1s
     0     2  448.00000    0   69  671.00000  448.00000  33.2%     -    1s
H 1034   434                     666.0000000  507.15385  23.9%  13.9    1s
* 1396   517              26     665.0000000  518.52390  22.0%  13.7    1s
* 1398   517              27     664.0000000  518.52390  21.9%  13.7    1s
H 1665   564                     655.0000000  520.00000  20.6%  21.9    2s

Cutting planes:
  Gomory: 1
  Implied bound: 1
  MIR: 4
  Flow cover: 4

Explored 10219 nodes (91352 simplex iterations) in 4.54 seconds
Thread count was 4 (of 4 available processors)

Solution count 10: 655 664 665 ... 701

Optimal solution found (tolerance 1.00e-04)
Best objective 6.550000000000e+02, best bound 6.550000000000e+02, gap 0.0000%

Wrote result file 'compact/la02.sol'

